
 102   30
  10   10   10   10   10   10   10   10   10   10   10   10   10   10   10   10   10   10   10   10   10   10   10   10   10   10   10   10   10   10

   0   0   0   0   0   0   0   0   0   0   0   0   0   0   0   0   0   0   0   0   0   0   0   0   0   0   0   0   0   0   0  29 2 3 4 5 6 7 8 9 10 11 12 13 14 15 16 17 19 20 21 23 24 25 26 27 29 31 32 38 40 
   8   1   0   0   0   0   0   0   0   1   0   1   0   0   0   0   0   0   0   0   0   0   0   0   0   0   0   0   0   0   0  22 101 99 76 75 72 66 65 62 57 55 54 53 52 51 50 49 46 45 44 43 39 37 
   7   0   0   0   1   0   0   0   3   0   0   0   0   0   0   0   0   0   0   0   1   0   1   0   0   0   0   0   0   0   0  16 99 75 66 65 63 62 58 57 55 52 49 45 44 43 39 33 
   4   0   0   0   0   0   0   0   0   0   0   0   0   0   0   0   0   0   0   0   0   0   0   0   0   0   0   1   0   3   1  12 99 75 72 66 60 59 58 55 49 42 39 18 
   2   0   0   3   0   0   0   0   0   0   0   0   0   0   0   0   0   0   0   0   0   0   0   0   0   0   0   0   0   0   0  14 75 74 67 66 60 59 58 57 55 52 42 37 33 28 
  10  10   0   0   3   0   0   0   0   0   1   0   0   1   0   0   0   2   1   0   8   0   5   0   0   0   0   0   0   3   0  17 98 96 76 75 74 73 66 61 59 57 54 53 51 48 47 43 28 
   4   0   0   0   0   0   0   0   0   0   0   0   0   0   0   0   0   0   0   2   0   0   0   0   0   0   2   0   0   0   0  13 99 74 66 60 58 57 54 51 50 49 43 37 22 
   4   0   0   0   0   0   0   1   0   0   0   0   0   4   0   0   0   0   0   0   0   2   0   0   0   0   0   0   0   0   0  16 101 99 97 76 74 71 65 62 59 54 51 46 44 43 42 30 
   2  10   0   0   0   0   0   0   0   0   0   0   1   0   0   0   0   0   0   0   6   3   0   2   0   0   0   0   0   0   0  16 101 98 97 73 72 66 62 59 58 52 48 47 46 44 41 35 
   6   0   0   0   7   0   0   0   0   0   0   4   0   0   0   0   0   0   0   0   0   0   0   0   0   0   0   5   0   0   0  16 101 100 99 89 75 72 66 65 61 59 55 54 50 45 43 39 
   6   0   0   0   5   0   3   0   0   0   0   0   0   9   0   1   0   0   0   0   0   0   0   0   0   0   0   0   0   0   0  14 101 100 98 96 93 75 72 66 59 55 43 41 39 36 
   4   0   0   0   8   0   0   0   0   0   0   0   0   0   3   0   0   0   0   0   0   0   0   0   0   0   0   0   0   0   0  11 71 68 67 65 59 56 52 48 45 37 28 
   2   0   0   0   0   0   0   0   0   0   0   0   0   0   0   0   0   0   0   0   0   0   7   0   2   0   0   0   0   0   5  21 99 98 97 95 86 76 74 73 69 67 66 65 64 63 59 57 55 53 52 51 48 
   1   0   1   0   0   0   0   0   0   0   0   0   0   0   0   0   0   3   0   0   0   0   0   0   4   0   0   6   0   4   0  17 101 99 98 96 91 66 65 64 62 60 57 55 54 50 49 48 43 
   5   0   0   0   0   0   0   0   0   0   0   0   0   0   0   0   0   0   0   0   2   0   0   0   0   0   0   0   1   0   0  15 99 98 97 95 76 75 73 64 63 59 58 54 52 51 43 
   3   0   0   0   0   1   0   5   4   0  10   0   0   6   0   0   0   0   4   0   0   0   0   0   0   0   0   0   0   6   4  10 99 95 74 69 66 60 59 58 35 34 
   2   0   0   5   0   0   0   0   0   0   0   0   0   0   0   0   0   4   0   0   5   6   0   6   0   0   0   0   0   0   0  16 98 96 93 74 72 67 66 65 61 59 56 55 54 50 43 41 
   6   0   0   0   0   0   0   0   0   0   0   0   0   0   0   0   0   0   0   0   0   0   0   0   0   0   0   0   0   0   0  16 101 98 97 96 93 91 76 71 65 64 56 54 51 48 44 43 
   2   0   0   0   0   0   0   0   0   0   4   0   0   0   0   0   0   0   0   0   0   7   0   0   0   0   0   0  10   0   0  14 99 98 97 94 75 72 65 64 61 60 58 54 44 43 
   7   0   0   0   0   0   8   0   0   0   0   0   0   0   0   9   0   4   0   9   7   0   0   0   0   0   0   0   0   0   0  12 101 100 92 89 86 85 72 70 59 54 49 45 
   6   0   0   0   0   0   0   0   0   0   0   0   0   0   0   0   1   0   0   0   0   0   5   0   0   0   5   0   0   0   0  15 99 92 91 87 86 84 82 81 76 70 64 59 57 52 49 
  10   0   0   4   0   0   0   0   0   0   0   0   6   0   0   0   0   0   6   0   0   0   0   0   0   1   0   0   0   0   0  13 98 97 96 95 93 73 72 69 65 64 55 48 42 
   8   0   0   0   0   0   0   0   0   0   0   0   0   0   0   0   0   0   0  10   0   0   0   0   5   0   4   0   0   0   0  13 96 91 84 82 74 72 70 66 65 59 57 51 49 
   9   0   0   0   0   0   0   0   0   0   8   0   0   0   0   0   0   0   0   0   0   0   0   0   0   0   0   7   0   0   0  15 99 98 97 96 93 88 76 75 73 66 64 55 54 50 43 
   9   0   0   0   0   0   0   0   6   0   6   0   0   0   0   0   6   0   0   0   0   0   0   8   0   0   0   0   0   0   0  15 99 98 97 96 95 94 93 91 89 88 80 64 55 54 43 
   2   0   0   0   0   0   0   0   0   0   0   0   0   0   4   0   7   0   0   0   0   0   9   0   0   0   0   0   0   0   0  16 100 98 96 95 93 91 90 88 86 76 71 65 64 59 55 54 
   1   0   0   2   0   0   0   0   0   3   0   0   0   0   0   0   0   0   0   0   0   0   0   0   0   0   0   5   7   0   0  11 100 99 98 96 93 89 88 71 66 54 43 
   8   0   0   0   9   0   6   0   0   0   0   0   0   0   0   0   0   0   0   0   0   0   7   4   0   0   0   0   0   7   0   9 99 97 94 91 87 85 72 50 44 
   4   0   9   0   4   0   0   0   0   0   0   0   0   0   0   0   0   0   0   0   0   0   0   0   0   0   0   6   5   0   0   8 100 99 95 91 74 64 58 43 
   3   0   0   0   0   0   0   0   0   8   0   0   0   0   0   0   0   0   0   0   0   0   0   0   0   0   0   7   0   0   0  15 98 95 94 93 91 90 89 87 86 80 72 70 66 61 55 
   2   0   0   0   0   0   0   0  10   0   0   0   0   0   0   0   0   0   0   0   0   0   8   0   0   0   0   0   0   0   0  12 100 97 94 86 82 80 75 73 72 67 60 54 
   4   5   0   0   0   6   4   9   7   8   0   0   0   0   6   0   0   0   0   0   0   0   0   0   6   0   0   6   0   0   0  11 93 92 86 85 82 80 79 72 59 54 49 
   7   0   0   0   0   0   0   0   0   7   0   0   0   0   0   0   9   0   0   0   0   0   0   0   0   0   0   0   0   6   7   8 101 96 95 93 71 54 51 50 
   4   0   0   0   0   0   0   0   0   0   0   0   0   0   0   0   0   0   0   0   0   0   0   0   0   0   0   6   0   0   0   8 101 98 97 91 82 65 51 50 
   7   6   0   0   0   0   0   0   0   4   0   0   0  10   5   0   0   0   7   0   0   4   0   0   0   0   0   0   8   7   0  16 100 94 93 92 91 90 89 88 86 85 84 83 82 77 65 64 
  10   0   0   0   0   0   0   0   0   5   0   0   0   0   0   0   0   0   0   0   0   0   0   0   0   0   0   0   5   0   0  11 94 91 89 87 85 84 82 71 65 64 50 
   1   0   0   9   9   0   0   0   0   0   0   0   0   0   4   0   5   0   0   0   0   0   0   0   0   0   0   0   0   0   9  16 100 91 90 89 88 87 86 84 83 82 81 80 77 73 69 64 
   6   0   0   0   0   0   5   0   0   0   0   0   0   0   0   0   0   0   0   0   0   0   0   0   0   0   0   0   0   0   0  12 99 98 94 93 92 91 90 89 86 80 66 54 
   1   0   0   0   0   0   0   0   0   0   0   0   6   0   0   7   0   0   0   0   0   0   0   0   0   0   0   0   0   0   0  15 97 95 94 92 91 90 88 83 82 79 78 77 74 73 71 
   5   0   7   0   0   0   0   0   0   8   4   0   9   0   0   0   0   9   0   0   9   0   5   0   0   0   0   0   0   0   0  10 94 87 86 84 82 81 72 70 69 52 
   1   0   0   0   0   0   0  10   0   0   0   0   5   0   0   0   0   0   0   0  10   0   0   0   0   0   0   0   0   0   0   9 99 90 86 84 82 79 70 69 51 
  10   0   0   0   6   0   0   0   0   8   0   0   0   0   0   0   0   0   0   0   0   0   0   0   0   0   0   4   7   0   0  13 100 94 91 90 89 88 87 86 84 83 82 80 70 
   2   6   0   0   0   0   0   0   0   0   0   0   0   0   0   0   0   0   0   0   0   0   0   0   0   0   9   0   0   4   0  12 92 90 87 86 85 84 83 82 81 79 70 69 
   9   0   0   0   0   0   0   0   6   0   0   0   0   0   0   6   0   7   5   0   0   0   0   0   0   0   7   0   0   0   0  12 100 95 92 90 89 88 84 82 80 79 70 69 
   2   0   0   0   0   0   0   0   0   0   0   0   0   0   0   8   0   5   0   0   0  10   0   0   0   0   6   0   0   0   8  10 98 96 93 91 88 82 80 77 69 64 
   2   0   0   0   0   0   0   0   0   0   0   0   0   0   0   0   0   0   0   0   0   0   0   0   0   0   0   0   0   0   0   8 96 93 86 85 83 82 80 64 
  10   0   5   0   0   0   0   0   0   6   0   0   0   0   7   0   0   5   0   0   4   0   0   0   0   0   0   0   5   0   8   3 80 64 55 
   5   7   0  10   0   0   7   0   0   0   0   0   0   0   0   0   0   0   0   0   0   0   0   0   0   0   0   0   0   0   0   9 90 89 84 82 81 80 79 78 77 
   2   5   0   0   0   0   0   0   0   0   0   7   0   0   0   0   6   6   0   0   0   0   0   0   0   0   0   7   0   0   0   8 97 95 94 90 88 83 77 69 
   3   0   0   0   0   0   0   0   0   0   0   0   0   0   0   0   0   0   0   0   0   0   0   0   0   0   0   0   0  10   0   7 92 86 83 81 79 78 70 
   7   0   0   0   0   8   0   6   0   0   0   6   0   0   0   0   0  10   0   0   0   0   0   6   0   0   0   0   0   0   0   7 92 89 88 87 85 81 80 
   7   0   0   0   0   0   0   7   0   0   7   0   0   0   0   0   0   0   0   0   0   7   8   0   5   0   0   0   0   0   0   7 96 93 89 85 80 79 77 
   5   0   0   0   0   0   0   0   0   0   8   0   6   0   8   0   0   0   0   0   0   0   0   0   0   0   0   0   0   8   0   6 84 83 81 79 78 77 
   9   0   0   0   8   0   0   0   0   0   0   9   7   0   6   0   6   0   0   0   0   0   0   0   0   0   0   0   6   0   0   5 87 84 81 77 69 
  10   0   0   0   0   0   0   0  10   4   0   0   0   0   0   0   0   0   0   0   0   0   0   6   0   0   0   0   8   0   0   5 85 83 82 81 77 
   4   0   0   0   0   0   0   0   0   0   0   0   0   0   0   0   0   0   0   0   0   0   3   0   8   0   0   0   0   7   0   5 89 83 82 81 78 
   9   0   0   0   0   0   0   0   0   6   0   0   0   0   0   0   0   0   0   0   0   0   0   0   0   9   0   0   0   0   0   4 93 79 77 71 
   2   0   0   0   0   0   0   0   0   0   0   6   0   0   0   0   0   0   0   0   0   7   0   0   0   0   0   6   0   0   0   4 81 79 78 71 
   5   0   0   0   0   0   0   0   0   0   0   0   0   0   0   0   6   0   0   4   0   0   0   0   0   0   7   0   0   0   0   3 94 78 77 
   3   0   0   7   0   0   0   0   0   0   0   5   0   0   0   0   0   0   0   0   0   0   0   0   0   0   4   0   0   0   0   3 83 79 77 
  10   0   0   0   0   0   5   0   0   0   0   0   0   0   0   0   0   0   0   0   0   0   0   7   0   5   0   0   0   0   0   3 84 79 78 
   6   0   0   0   0   0   4   0   0   0   6   0   0   0   0   0   0   0   0   0   4   0   0   0   9   0   0   9   0   0   3   3 84 79 78 
   9   0   0   0   0   0   0   0   0   0   0   0   0   0   0   0   9   0   0   0   0   8   0   0   0   0   0   0   0   0   0   2 80 72 
  10   7   0   0   0   0   0   0   0   0   0   0   0   0   0   0   0   0   0   0   0   0   0   0   0   0   0   0   0   0   0   2 79 78 
   2   0   0   0   0   0   0   0   0   0   0   0   0   0   0   0   0   0   0   0   8   0   0   0   0   7   6   0   0   5   0   2 81 80 
   6   0   0   0   0   5   0   7   0   0   0   0   0   0   0   0   0   0   0   0   3   0   0   0   0   0   0   0   0   6   0   2 81 79 
   9   0   0   0   0   0   0   5   0   0   0   0   0   0   0   0   0   0   0   0   0   0   0   0   0   8   0   0   5   0   0   2 91 88 
   1   0   0   0   0   0   0   0   0   0   0   0   0   0   0   0   0   5   0   0   9   7   0   0   0   0   0   4   4   0   0   2 92 80 
   6   0   0   0   0   6   6   0   0   0   0   0   0   0   5   0   0   0   6   0   3   0   0   0   0   0   0   0   0   0   0   1 78 
  10   0   0   8   0   0   0   0   0   0   0   0   0   4   0   0   0   0   0   0   0   0   0   0  10   0   0   0   0   0   0   1 77 
   6   0   0   0   0   0   0   0   0   0   0   0   0   0  10   6   0   0   0   0   0   0   0   0   0   0   0   0   0  10   0   1 80 
  10   0   0   0   0   0   0   0   0   0   0   5   0   0   0   0   0   0   0   0   0   0   0   0   0   8   0   0   0   0   0   1 77 
   8   0   0   0   0   0   0   0   0   0   0   0   0   0   0   0   0   0   0   0   0   0  10   0   4   0   0   8   0   0   6   1 85 
   2   0   0   0   0   0   0   0   0   0   0   0   0   0   0   0   0   0   9   0   0   0   0  10   0   0   0   0   0   0   0   1 81 
   8   0   0   0   0   0   0   5   0   0   3   0   0   0   0   8   0   0   0   0   0   0   0   0   0   0   0   0   6   0   0   1 91 
   2   0   0   0   0   0   0   0   0   0   0   3   3   0   0   0   0   0   0   7   4   0   0   0   0   7   0   0   0   0   0   1 77 
   5   7   0   0   0   0   0   0   0   0   0   0   0   5   0   0   0   0   4   0   0   0   0   0   0   0   5   0   0   0   0   1 102
   8   0   2   0   0   0   7   0   0   0   0   0   0   0   0   0   0   0   0   0   6   0   7   0   0   0   0   9   7   0   0   1 102
   1   0   0   8   0   0   0   0   6   0   0   0   6   0   0   4   0   0   0   4   0   0   0   0   9   0   0   0   0   0   0   1 102
   6   0   0   0   0   9   0   0   0   0   0   0   0   0   0   0   0   0   0   0   0   0   6   0   0   0   0   0   0   0   7   1 102
   9   0   0   0   5   0   0   0   0   0   0   9   7   0   0   6   0   0   0   0   0   0   0   0   0   0   0   0   0   0   5   1 102
  10   0   0   0   0   6   0   0   0   7   7   0   0   0   0   7   0   0   0   0   0   5   0   0   0   6   0   0   0   0   0   1 102
   7   0   0   5   0   0   0   0   0   0   0   0   0   0   0   0   0   0   0   0   0   0   0   0   0   0   0   6   0   8   0   1 102
   1   0   0   0   0   0   0   0   0   9   0   0   0   8   0   5   0  10   0   3   0   0   0   0   0   0   0   0   0   0   0   1 102
   5   0   0   0   0   0   0   0   0   5   0   0   0   0   0   0   6   0   0   0   0   0   0   5   0   3  10   0   0   4   0   1 102
   4   0   0   0   0   0   6   0   0   5   0   8   5   7   0   0   0   0   0   0   0   0   0   0   0   0   0   0   0   0  10   1 102
   8   0   0   0   0   0   0   0   0   0   0   0   0   0   0   0   0   7   0   0   9   0   0   0   0   0   0   0   0   5   9   1 102
   3   0   0   0   0   6   0   0   0   0   0   0   7   0   0   0   0   0   9   0   0   0   0   0   0   0   0   0   0   0   0   1 102
   8   0   8   0   8   0   0   0   0   0   0   0   0   0   0   0   0   0   0   7   8   0   0   0   0   0   0   0   0   0   0   1 102
   6   0   0   8   0   0   0   0   2   6   0   0   0   0   0   0   0   7   7   0   0   0   0   7   0   0   0   0   0   0   0   1 102
   2   3   7   0   0   9   0   0   0   0   0   0   0   0   9   5   0   0   8   0   0   0   0   0   0   0   0   0   0   0   0   1 102
   4   5   0   0   0   0   5   0   0   0   8   0   0   0   0   0   5   0   5   0   7   0   0   0   0   0   0   0   0   0   0   1 102
   5   0   0   3   0   0   0   0   0   0   0   0   0   0   0   0   0   0   0   0   0   6   3   5   0   0   0   0   0   0   0   1 102
   6   0   0   0   0   3  10   0   0   0   0   0   5   0   0   0   0   0   0   0   0   0   0   0   0   0   0   0   0   0   0   1 102
   9   0   7   6   0   0   0   0   0   0   0   0   0   0   0   0   0   0   0   0   0   0   0   0   0   0   0   0   0   5   0   1 102
   4   0   8   0   6   7   0   0   0   0   0  10   0   0   0   0   0   0   0   5   0   0   6   0   0   0   5   0   0   0   0   1 102
   6   0   0   0   0   0   8   0   0   0   0   0   0   0   0   0   0   0   0   0   0   0   0   0   0   0   0   0   0   0   5   1 102
   8   0   0   0   5   0   0   0   0   0   0   0   7   0   5   0   0   0   0   0   0   0   0   8   0   0   0   0   0   0   0   1 102
   8   0   0   0   0   0   6   0   0   0   0   0   0   0   0   0   0   0   0   0   0   0   0   0   0   0   0   0   0   0   3   1 102
   6   0   0   0   0   0   0   5   0   8   0   4   0   0   0   0   0   0   7   0   7   0   0   4   0   0   0   0   0   0   0   1 102
   7   0   0   0   0   0   0   0   0   0   0   7  10   0   0   0   0   0   0   9   0   0   0   0   4   0   8   0   0   0   0   1 102
   0   0   0   0   0   0   0   0   0   0   0   0   0   0   0   0   0   0   0   0   0   0   0   0   0   0   0   0   0   0   0   0 
